
Gurobi 9.1.1 (linux64) logging started Tue Nov 30 04:33:16 2021

Changed value of parameter LogFile to /home/aniket/python_scripts/Plasmids-Optimization/exp/2021-06-14__iterative_MILP_edge_novelty/output/sample_43/1.1.1/nplasmids_1/MILP/m.log
   Prev:   Default: 
Changed value of parameter TimeLimit to 240.0
   Prev: inf  Min: 0.0  Max: inf  Default: inf
Changed value of parameter MIPGap to 0.05
   Prev: 0.0001  Min: 0.0  Max: inf  Default: 0.0001
Gurobi Optimizer version 9.1.1 build v9.1.1rc0 (linux64)
Thread count: 2 physical cores, 4 logical processors, using up to 4 threads
Optimize a model with 18523 rows, 6228 columns and 46016 nonzeros
Model fingerprint: 0x8f44cd33
Variable types: 1821 continuous, 4407 integer (4043 binary)
Coefficient statistics:
  Matrix range     [1e-02, 7e+05]
  Objective range  [9e-03, 1e+00]
  Bounds range     [1e+00, 1e+00]
  RHS range        [1e+00, 2e+05]
Presolve removed 15662 rows and 3475 columns
Presolve time: 0.07s
Presolved: 2861 rows, 2753 columns, 14235 nonzeros
Variable types: 693 continuous, 2060 integer (2060 binary)
Found heuristic solution: objective -0.8776762

Root relaxation: objective -1.940235e+01, 1916 iterations, 0.05 seconds

    Nodes    |    Current Node    |     Objective Bounds      |     Work
 Expl Unexpl |  Obj  Depth IntInf | Incumbent    BestBd   Gap | It/Node Time

     0     0  -19.40235    0  164   -0.87768  -19.40235  2111%     -    0s
     0     0  -19.40235    0  169   -0.87768  -19.40235  2111%     -    0s
H    0     0                     -18.2591302  -19.40235  6.26%     -    0s
     0     0  -19.40235    0  169  -18.25913  -19.40235  6.26%     -    0s
     0     0  -19.40034    0  168  -18.25913  -19.40034  6.25%     -    0s
     0     0  -19.40034    0  164  -18.25913  -19.40034  6.25%     -    0s
     0     0  -19.39571    0  170  -18.25913  -19.39571  6.22%     -    0s
     0     0  -19.39571    0  169  -18.25913  -19.39571  6.22%     -    0s
     0     0  -19.38835    0  167  -18.25913  -19.38835  6.18%     -    0s
H    0     0                     -18.2591435  -19.38835  6.18%     -    0s
     0     0  -19.38835    0  174  -18.25914  -19.38835  6.18%     -    0s
     0     0  -19.38835    0  185  -18.25914  -19.38835  6.18%     -    0s
     0     0  -19.38835    0  183  -18.25914  -19.38835  6.18%     -    0s
     0     0  -19.38835    0  168  -18.25914  -19.38835  6.18%     -    1s
     0     0  -19.38835    0  179  -18.25914  -19.38835  6.18%     -    1s
     0     0  -19.38835    0  173  -18.25914  -19.38835  6.18%     -    1s
     0     0  -19.38835    0  166  -18.25914  -19.38835  6.18%     -    1s
     0     2  -19.38835    0  166  -18.25914  -19.38835  6.18%     -    1s
H   78    28                     -18.2591443  -19.24489  5.40%  72.9    1s

Cutting planes:
  Gomory: 8
  Implied bound: 12
  MIR: 5
  Flow cover: 107
  RLT: 159
  BQP: 2

Explored 100 nodes (16643 simplex iterations) in 1.54 seconds
Thread count was 4 (of 4 available processors)

Solution count 3: -18.2591 -18.2591 -0.877676 

Optimal solution found (tolerance 5.00e-02)
Best objective -1.825914433277e+01, best bound -1.917164722857e+01, gap 4.9975%
Gurobi Optimizer version 9.1.1 build v9.1.1rc0 (linux64)
Thread count: 2 physical cores, 4 logical processors, using up to 4 threads
Optimize a model with 18524 rows, 6228 columns and 46025 nonzeros
Model fingerprint: 0x6af02d3c
Variable types: 1821 continuous, 4407 integer (4043 binary)
Coefficient statistics:
  Matrix range     [1e-02, 7e+05]
  Objective range  [9e-03, 1e+00]
  Bounds range     [1e+00, 1e+00]
  RHS range        [1e+00, 2e+05]

MIP start from previous solve did not produce a new incumbent solution
MIP start from previous solve violates constraint circular by 1.000000000

Presolve removed 15662 rows and 3475 columns
Presolve time: 0.07s
Presolved: 2862 rows, 2753 columns, 14252 nonzeros
Variable types: 693 continuous, 2060 integer (2060 binary)
Found heuristic solution: objective -0.8776762

Root relaxation: objective -1.940235e+01, 1874 iterations, 0.05 seconds

    Nodes    |    Current Node    |     Objective Bounds      |     Work
 Expl Unexpl |  Obj  Depth IntInf | Incumbent    BestBd   Gap | It/Node Time

     0     0  -19.40235    0  163   -0.87768  -19.40235  2111%     -    0s
     0     0  -19.40235    0  157   -0.87768  -19.40235  2111%     -    0s
H    0     0                     -18.2591302  -19.40235  6.26%     -    0s
     0     0  -19.40235    0  157  -18.25913  -19.40235  6.26%     -    0s
     0     0  -19.40235    0  160  -18.25913  -19.40235  6.26%     -    0s
     0     0  -19.40235    0  160  -18.25913  -19.40235  6.26%     -    0s
     0     0  -19.40235    0  173  -18.25913  -19.40235  6.26%     -    0s
     0     0  -19.40235    0  169  -18.25913  -19.40235  6.26%     -    0s
     0     0  -19.40235    0  169  -18.25913  -19.40235  6.26%     -    0s
     0     2  -19.40235    0  167  -18.25913  -19.40235  6.26%     -    1s
H   58    34                     -18.2591364  -19.23605  5.35%   102    1s
H  313   138                     -18.2591373  -19.19572  5.13%  56.8    2s

Cutting planes:
  Gomory: 4
  Implied bound: 15
  MIR: 1
  Flow cover: 135
  RLT: 134

Explored 350 nodes (27281 simplex iterations) in 2.42 seconds
Thread count was 4 (of 4 available processors)

Solution count 4: -18.2591 -18.2591 -18.2591 -0.877676 

Optimal solution found (tolerance 5.00e-02)
Best objective -1.825913731749e+01, best bound -1.916958841846e+01, gap 4.9863%
Gurobi Optimizer version 9.1.1 build v9.1.1rc0 (linux64)
Thread count: 2 physical cores, 4 logical processors, using up to 4 threads
Optimize a model with 18525 rows, 6228 columns and 46049 nonzeros
Model fingerprint: 0x979bd39f
Variable types: 1821 continuous, 4407 integer (4043 binary)
Coefficient statistics:
  Matrix range     [1e-02, 7e+05]
  Objective range  [9e-03, 1e+00]
  Bounds range     [1e+00, 1e+00]
  RHS range        [1e+00, 2e+05]

MIP start from previous solve did not produce a new incumbent solution
MIP start from previous solve violates constraint circular by 1.000000000

Presolve removed 15662 rows and 3475 columns
Presolve time: 0.07s
Presolved: 2863 rows, 2753 columns, 14284 nonzeros
Variable types: 693 continuous, 2060 integer (2060 binary)
Found heuristic solution: objective -0.8776762

Root relaxation: objective -1.940235e+01, 1879 iterations, 0.05 seconds

    Nodes    |    Current Node    |     Objective Bounds      |     Work
 Expl Unexpl |  Obj  Depth IntInf | Incumbent    BestBd   Gap | It/Node Time

     0     0  -19.40235    0  167   -0.87768  -19.40235  2111%     -    0s
     0     0  -19.40235    0  175   -0.87768  -19.40235  2111%     -    0s
H    0     0                     -18.2591302  -19.40235  6.26%     -    0s
     0     0  -19.40235    0  175  -18.25913  -19.40235  6.26%     -    0s
     0     0  -19.40034    0  169  -18.25913  -19.40034  6.25%     -    0s
     0     0  -19.40034    0  161  -18.25913  -19.40034  6.25%     -    0s
     0     0  -19.40034    0  160  -18.25913  -19.40034  6.25%     -    0s
     0     0  -19.40034    0  160  -18.25913  -19.40034  6.25%     -    0s
     0     0  -19.40034    0  166  -18.25913  -19.40034  6.25%     -    0s
     0     0  -19.40034    0  159  -18.25913  -19.40034  6.25%     -    0s
     0     0  -19.40034    0  159  -18.25913  -19.40034  6.25%     -    0s
     0     0  -19.40034    0  159  -18.25913  -19.40034  6.25%     -    1s
     0     2  -19.40034    0  159  -18.25913  -19.40034  6.25%     -    1s
*  236   190              39     -18.2591302  -19.32536  5.84%  53.8    2s
H  397   264                     -18.2591303  -19.32536  5.84%  42.4    3s
H  682   425                     -18.2591350  -19.32160  5.82%  37.4    4s
H  693   425                     -18.2591362  -19.32160  5.82%  37.2    4s
H  731   424                     -18.2591366  -19.32160  5.82%  36.5    4s
   733   425  -18.99322   11  166  -18.25914  -19.32160  5.82%  36.4    5s
H  798   444                     -18.2591400  -19.32160  5.82%  45.4    6s
H  882   481                     -18.2591400  -19.32160  5.82%  47.0    7s
  1434   637  -18.52837   41   32  -18.25914  -19.32160  5.82%  53.4   10s

Cutting planes:
  Gomory: 1
  Flow cover: 5
  RLT: 39

Explored 2321 nodes (126816 simplex iterations) in 12.71 seconds
Thread count was 4 (of 4 available processors)

Solution count 7: -18.2591 -18.2591 -18.2591 ... -0.877676

Optimal solution found (tolerance 5.00e-02)
Best objective -1.825914001874e+01, best bound -1.916216880256e+01, gap 4.9456%
Gurobi Optimizer version 9.1.1 build v9.1.1rc0 (linux64)
Thread count: 2 physical cores, 4 logical processors, using up to 4 threads
Optimize a model with 18526 rows, 6228 columns and 46059 nonzeros
Model fingerprint: 0x04fedcfb
Variable types: 1821 continuous, 4407 integer (4043 binary)
Coefficient statistics:
  Matrix range     [1e-02, 7e+05]
  Objective range  [9e-03, 1e+00]
  Bounds range     [1e+00, 1e+00]
  RHS range        [1e+00, 2e+05]

MIP start from previous solve did not produce a new incumbent solution
MIP start from previous solve violates constraint circular by 1.000000000

Presolve removed 15662 rows and 3475 columns
Presolve time: 0.08s
Presolved: 2864 rows, 2753 columns, 14302 nonzeros
Variable types: 693 continuous, 2060 integer (2060 binary)
Found heuristic solution: objective -0.8776762

Root relaxation: objective -1.940235e+01, 1978 iterations, 0.06 seconds

    Nodes    |    Current Node    |     Objective Bounds      |     Work
 Expl Unexpl |  Obj  Depth IntInf | Incumbent    BestBd   Gap | It/Node Time

     0     0  -19.40235    0  167   -0.87768  -19.40235  2111%     -    0s
     0     0  -19.40235    0  169   -0.87768  -19.40235  2111%     -    0s
H    0     0                     -18.2591311  -19.40235  6.26%     -    0s
     0     0  -19.40235    0  169  -18.25913  -19.40235  6.26%     -    0s
     0     0  -19.40034    0  168  -18.25913  -19.40034  6.25%     -    0s
     0     0  -19.40034    0  159  -18.25913  -19.40034  6.25%     -    0s
     0     0  -19.40034    0  162  -18.25913  -19.40034  6.25%     -    0s
     0     0  -19.40034    0  161  -18.25913  -19.40034  6.25%     -    0s
     0     0  -19.40034    0  167  -18.25913  -19.40034  6.25%     -    0s
     0     0  -19.40034    0  159  -18.25913  -19.40034  6.25%     -    0s
     0     0  -19.40034    0  164  -18.25913  -19.40034  6.25%     -    1s
     0     0  -19.40034    0  159  -18.25913  -19.40034  6.25%     -    1s
     0     0  -19.40034    0  169  -18.25913  -19.40034  6.25%     -    1s
     0     0  -19.40034    0  169  -18.25913  -19.40034  6.25%     -    1s
     0     2  -19.40034    0  169  -18.25913  -19.40034  6.25%     -    1s
H  240   193                     -18.2591334  -19.37765  6.13%  61.6    2s
   745   526  -18.60206   19  169  -18.25913  -19.29421  5.67%  58.9    5s
H  746   500                     -18.2591338  -19.29421  5.67%  58.8    5s
H  747   475                     -18.2591342  -19.29421  5.67%  58.7    5s
H  810   495                     -18.2591370  -19.25199  5.44%  68.5    7s
H 1057   597                     -18.2591383  -19.25199  5.44%  70.1    9s
  1266   678  -18.65110   26   60  -18.25914  -19.25199  5.44%  66.7   10s

Cutting planes:
  Gomory: 2
  MIR: 1
  Flow cover: 6
  RLT: 28

Explored 1851 nodes (128120 simplex iterations) in 11.57 seconds
Thread count was 4 (of 4 available processors)

Solution count 5: -18.2591 -18.2591 -18.2591 ... -0.877676

Optimal solution found (tolerance 5.00e-02)
Best objective -1.825913834771e+01, best bound -1.915493384795e+01, gap 4.9060%

Gurobi 9.1.1 (linux64) logging started Tue Nov 30 04:33:44 2021

Changed value of parameter LogFile to /home/aniket/python_scripts/Plasmids-Optimization/exp/2021-06-14__iterative_MILP_edge_novelty/output/sample_43/1.1.1/nplasmids_1/MILP/m.log
   Prev:   Default: 
Changed value of parameter TimeLimit to 240.0
   Prev: inf  Min: 0.0  Max: inf  Default: inf
Changed value of parameter MIPGap to 0.05
   Prev: 0.0001  Min: 0.0  Max: inf  Default: 0.0001
Gurobi Optimizer version 9.1.1 build v9.1.1rc0 (linux64)
Thread count: 2 physical cores, 4 logical processors, using up to 4 threads
Optimize a model with 16957 rows, 5697 columns and 41681 nonzeros
Model fingerprint: 0xe116ad18
Variable types: 1686 continuous, 4011 integer (3674 binary)
Coefficient statistics:
  Matrix range     [1e-02, 7e+05]
  Objective range  [9e-03, 1e+00]
  Bounds range     [1e+00, 1e+00]
  RHS range        [1e+00, 2e+05]
Presolve removed 14336 rows and 3220 columns
Presolve time: 0.06s
Presolved: 2621 rows, 2477 columns, 12733 nonzeros
Variable types: 639 continuous, 1838 integer (1838 binary)
Found heuristic solution: objective -0.8776762

Root relaxation: objective -1.869632e+01, 1540 iterations, 0.03 seconds

    Nodes    |    Current Node    |     Objective Bounds      |     Work
 Expl Unexpl |  Obj  Depth IntInf | Incumbent    BestBd   Gap | It/Node Time

     0     0  -18.69632    0  112   -0.87768  -18.69632  2030%     -    0s
H    0     0                     -18.2591302  -18.69632  2.39%     -    0s

Explored 1 nodes (2415 simplex iterations) in 0.14 seconds
Thread count was 4 (of 4 available processors)

Solution count 2: -18.2591 -0.877676 

Optimal solution found (tolerance 5.00e-02)
Best objective -1.825913021653e+01, best bound -1.869631865639e+01, gap 2.3944%
Gurobi Optimizer version 9.1.1 build v9.1.1rc0 (linux64)
Thread count: 2 physical cores, 4 logical processors, using up to 4 threads
Optimize a model with 16958 rows, 5697 columns and 41691 nonzeros
Model fingerprint: 0xa1adfc62
Variable types: 1686 continuous, 4011 integer (3674 binary)
Coefficient statistics:
  Matrix range     [1e-02, 7e+05]
  Objective range  [9e-03, 1e+00]
  Bounds range     [1e+00, 1e+00]
  RHS range        [1e+00, 2e+05]

MIP start from previous solve did not produce a new incumbent solution
MIP start from previous solve violates constraint circular by 1.000000000

Presolve removed 14336 rows and 3220 columns
Presolve time: 0.06s
Presolved: 2622 rows, 2477 columns, 12751 nonzeros
Variable types: 639 continuous, 1838 integer (1838 binary)
Found heuristic solution: objective -0.8776762

Root relaxation: objective -1.869632e+01, 2170 iterations, 0.04 seconds

    Nodes    |    Current Node    |     Objective Bounds      |     Work
 Expl Unexpl |  Obj  Depth IntInf | Incumbent    BestBd   Gap | It/Node Time

     0     0  -18.69632    0  113   -0.87768  -18.69632  2030%     -    0s
H    0     0                     -18.2591302  -18.69632  2.39%     -    0s

Explored 1 nodes (2946 simplex iterations) in 0.15 seconds
Thread count was 4 (of 4 available processors)

Solution count 2: -18.2591 -0.877676 

Optimal solution found (tolerance 5.00e-02)
Best objective -1.825913021653e+01, best bound -1.869631865639e+01, gap 2.3944%

Gurobi 9.1.1 (linux64) logging started Tue Nov 30 04:33:45 2021

Changed value of parameter LogFile to /home/aniket/python_scripts/Plasmids-Optimization/exp/2021-06-14__iterative_MILP_edge_novelty/output/sample_43/1.1.1/nplasmids_1/MILP/m.log
   Prev:   Default: 
Changed value of parameter TimeLimit to 240.0
   Prev: inf  Min: 0.0  Max: inf  Default: inf
Changed value of parameter MIPGap to 0.05
   Prev: 0.0001  Min: 0.0  Max: inf  Default: 0.0001
Gurobi Optimizer version 9.1.1 build v9.1.1rc0 (linux64)
Thread count: 2 physical cores, 4 logical processors, using up to 4 threads
Optimize a model with 15679 rows, 5262 columns and 38594 nonzeros
Model fingerprint: 0xe36ce096
Variable types: 1551 continuous, 3711 integer (3401 binary)
Coefficient statistics:
  Matrix range     [1e-02, 7e+05]
  Objective range  [9e-03, 1e+00]
  Bounds range     [1e+00, 1e+00]
  RHS range        [1e+00, 2e+05]
Presolve removed 13285 rows and 2965 columns
Presolve time: 0.05s
Presolved: 2394 rows, 2297 columns, 11785 nonzeros
Variable types: 585 continuous, 1712 integer (1712 binary)
Found heuristic solution: objective -0.0303470

Root relaxation: objective -2.216329e+00, 1746 iterations, 0.04 seconds

    Nodes    |    Current Node    |     Objective Bounds      |     Work
 Expl Unexpl |  Obj  Depth IntInf | Incumbent    BestBd   Gap | It/Node Time

     0     0   -2.21633    0  135   -0.03035   -2.21633  7203%     -    0s
     0     0   -2.10443    0  125   -0.03035   -2.10443  6835%     -    0s
H    0     0                      -1.4478904   -2.10443  45.3%     -    0s
     0     0   -2.10443    0  130   -1.44789   -2.10443  45.3%     -    0s
     0     0   -2.09422    0  121   -1.44789   -2.09422  44.6%     -    0s
     0     0   -2.09085    0  154   -1.44789   -2.09085  44.4%     -    0s
     0     0   -2.01823    0  152   -1.44789   -2.01823  39.4%     -    0s
     0     0   -2.01677    0  157   -1.44789   -2.01677  39.3%     -    0s
     0     0   -1.98568    0  184   -1.44789   -1.98568  37.1%     -    0s
     0     0   -1.98538    0  169   -1.44789   -1.98538  37.1%     -    0s
     0     0   -1.98319    0  160   -1.44789   -1.98319  37.0%     -    0s
     0     0   -1.98310    0  163   -1.44789   -1.98310  37.0%     -    0s
     0     0   -1.98310    0  163   -1.44789   -1.98310  37.0%     -    0s
     0     0   -1.98056    0  166   -1.44789   -1.98056  36.8%     -    0s
     0     0   -1.98035    0  168   -1.44789   -1.98035  36.8%     -    0s
     0     0   -1.97868    0  168   -1.44789   -1.97868  36.7%     -    0s
     0     0   -1.97868    0  168   -1.44789   -1.97868  36.7%     -    0s
     0     0   -1.93234    0  106   -1.44789   -1.93234  33.5%     -    0s
     0     0   -1.93233    0  139   -1.44789   -1.93233  33.5%     -    0s
     0     0   -1.93233    0  139   -1.44789   -1.93233  33.5%     -    0s
     0     0   -1.93233    0  132   -1.44789   -1.93233  33.5%     -    0s
     0     0   -1.93233    0  121   -1.44789   -1.93233  33.5%     -    0s
     0     0   -1.93233    0  132   -1.44789   -1.93233  33.5%     -    0s
     0     0   -1.93233    0  120   -1.44789   -1.93233  33.5%     -    0s
     0     0   -1.93233    0  131   -1.44789   -1.93233  33.5%     -    1s
     0     0   -1.93233    0   96   -1.44789   -1.93233  33.5%     -    1s
     0     0   -1.93233    0  106   -1.44789   -1.93233  33.5%     -    1s
     0     0   -1.92495    0  106   -1.44789   -1.92495  32.9%     -    1s
     0     0   -1.92238    0  109   -1.44789   -1.92238  32.8%     -    1s
     0     0   -1.89050    0   96   -1.44789   -1.89050  30.6%     -    1s
     0     0   -1.88451    0  131   -1.44789   -1.88451  30.2%     -    1s
     0     0   -1.87770    0  109   -1.44789   -1.87770  29.7%     -    1s
     0     0   -1.87770    0  109   -1.44789   -1.87770  29.7%     -    1s
     0     0   -1.87690    0  107   -1.44789   -1.87690  29.6%     -    1s
     0     0   -1.87690    0  102   -1.44789   -1.87690  29.6%     -    1s
     0     0   -1.87275    0  109   -1.44789   -1.87275  29.3%     -    1s
     0     0   -1.86983    0  110   -1.44789   -1.86983  29.1%     -    1s
     0     0   -1.86983    0  110   -1.44789   -1.86983  29.1%     -    1s
     0     0   -1.86983    0  112   -1.44789   -1.86983  29.1%     -    1s
     0     0   -1.86983    0  114   -1.44789   -1.86983  29.1%     -    1s
     0     0   -1.86983    0  117   -1.44789   -1.86983  29.1%     -    1s
     0     0   -1.86983    0  117   -1.44789   -1.86983  29.1%     -    1s
     0     0   -1.86983    0  110   -1.44789   -1.86983  29.1%     -    1s
     0     0   -1.85145    0   80   -1.44789   -1.85145  27.9%     -    1s
     0     0   -1.85145    0   79   -1.44789   -1.85145  27.9%     -    1s
     0     0   -1.85145    0   85   -1.44789   -1.85145  27.9%     -    2s
     0     0   -1.79894    0   46   -1.44789   -1.79894  24.2%     -    2s
     0     0   -1.49261    0    3   -1.44789   -1.49261  3.09%     -    2s

Cutting planes:
  Gomory: 2
  Implied bound: 18
  MIR: 3
  Flow cover: 12
  Zero half: 4
  RLT: 42
  Relax-and-lift: 7

Explored 1 nodes (15255 simplex iterations) in 2.29 seconds
Thread count was 4 (of 4 available processors)

Solution count 2: -1.44789 -0.030347 

Optimal solution found (tolerance 5.00e-02)
Best objective -1.447890404555e+00, best bound -1.492611108897e+00, gap 3.0887%

Gurobi 9.1.1 (linux64) logging started Tue Nov 30 04:33:48 2021

Changed value of parameter LogFile to /home/aniket/python_scripts/Plasmids-Optimization/exp/2021-06-14__iterative_MILP_edge_novelty/output/sample_43/1.1.1/nplasmids_1/MILP/m.log
   Prev:   Default: 
Changed value of parameter TimeLimit to 240.0
   Prev: inf  Min: 0.0  Max: inf  Default: inf
Changed value of parameter MIPGap to 0.05
   Prev: 0.0001  Min: 0.0  Max: inf  Default: 0.0001
Gurobi Optimizer version 9.1.1 build v9.1.1rc0 (linux64)
Thread count: 2 physical cores, 4 logical processors, using up to 4 threads
Optimize a model with 15594 rows, 5233 columns and 38407 nonzeros
Model fingerprint: 0xd3797f3e
Variable types: 1541 continuous, 3692 integer (3384 binary)
Coefficient statistics:
  Matrix range     [1e-02, 7e+05]
  Objective range  [9e-03, 1e+00]
  Bounds range     [1e+00, 1e+00]
  RHS range        [1e+00, 2e+05]
Presolve removed 13219 rows and 2947 columns
Presolve time: 0.05s
Presolved: 2375 rows, 2286 columns, 11723 nonzeros
Variable types: 581 continuous, 1705 integer (1705 binary)
Found heuristic solution: objective -0.0303470

Root relaxation: objective -1.834615e+00, 1496 iterations, 0.04 seconds

    Nodes    |    Current Node    |     Objective Bounds      |     Work
 Expl Unexpl |  Obj  Depth IntInf | Incumbent    BestBd   Gap | It/Node Time

     0     0   -1.83461    0  133   -0.03035   -1.83461  5945%     -    0s
     0     0   -1.72975    0  146   -0.03035   -1.72975  5600%     -    0s
H    0     0                      -0.9266932   -1.72975  86.7%     -    0s
     0     0   -1.71866    0  136   -0.92669   -1.71866  85.5%     -    0s
     0     0   -1.65711    0  154   -0.92669   -1.65711  78.8%     -    0s
     0     0   -1.65245    0  144   -0.92669   -1.65245  78.3%     -    0s
     0     0   -1.64664    0  142   -0.92669   -1.64664  77.7%     -    0s
     0     0   -1.64600    0  140   -0.92669   -1.64600  77.6%     -    0s
     0     0   -1.63075    0  145   -0.92669   -1.63075  76.0%     -    0s
     0     0   -1.61276    0  147   -0.92669   -1.61276  74.0%     -    0s
     0     0   -1.59233    0  115   -0.92669   -1.59233  71.8%     -    0s
     0     0   -1.59200    0  149   -0.92669   -1.59200  71.8%     -    0s
     0     0   -1.56053    0  124   -0.92669   -1.56053  68.4%     -    0s
     0     0   -1.56038    0  125   -0.92669   -1.56038  68.4%     -    0s
     0     0   -1.55817    0  119   -0.92669   -1.55817  68.1%     -    0s
     0     0   -1.55817    0  120   -0.92669   -1.55817  68.1%     -    0s
     0     0   -1.55707    0  151   -0.92669   -1.55707  68.0%     -    0s
     0     0   -1.55221    0  149   -0.92669   -1.55221  67.5%     -    0s
     0     0   -1.54895    0  157   -0.92669   -1.54895  67.1%     -    0s
     0     0   -1.54895    0  158   -0.92669   -1.54895  67.1%     -    0s
     0     0   -1.54378    0  162   -0.92669   -1.54378  66.6%     -    0s
     0     0   -1.54372    0  171   -0.92669   -1.54372  66.6%     -    0s
     0     0   -1.54370    0  178   -0.92669   -1.54370  66.6%     -    0s
     0     0   -1.54370    0  158   -0.92669   -1.54370  66.6%     -    0s
     0     0   -1.54370    0  156   -0.92669   -1.54370  66.6%     -    0s
     0     0   -1.54370    0  156   -0.92669   -1.54370  66.6%     -    0s
     0     2   -1.54370    0  149   -0.92669   -1.54370  66.6%     -    0s

Cutting planes:
  Gomory: 5
  Cover: 2
  Implied bound: 31
  MIR: 7
  Flow cover: 64
  Zero half: 1
  RLT: 118
  Relax-and-lift: 7

Explored 49 nodes (10514 simplex iterations) in 1.26 seconds
Thread count was 4 (of 4 available processors)

Solution count 2: -0.926693 -0.030347 

Optimal solution found (tolerance 5.00e-02)
Best objective -9.266932270916e-01, best bound -9.266932270916e-01, gap 0.0000%

Gurobi 9.1.1 (linux64) logging started Tue Nov 30 04:33:49 2021

Changed value of parameter LogFile to /home/aniket/python_scripts/Plasmids-Optimization/exp/2021-06-14__iterative_MILP_edge_novelty/output/sample_43/1.1.1/nplasmids_1/MILP/m.log
   Prev:   Default: 
Changed value of parameter TimeLimit to 240.0
   Prev: inf  Min: 0.0  Max: inf  Default: inf
Changed value of parameter MIPGap to 0.05
   Prev: 0.0001  Min: 0.0  Max: inf  Default: 0.0001
Gurobi Optimizer version 9.1.1 build v9.1.1rc0 (linux64)
Thread count: 2 physical cores, 4 logical processors, using up to 4 threads
Optimize a model with 15544 rows, 5216 columns and 38281 nonzeros
Model fingerprint: 0xedcb8337
Variable types: 1536 continuous, 3680 integer (3373 binary)
Coefficient statistics:
  Matrix range     [1e-02, 7e+05]
  Objective range  [9e-03, 1e+00]
  Bounds range     [1e+00, 1e+00]
  RHS range        [1e+00, 2e+05]
Presolve removed 13177 rows and 2935 columns
Presolve time: 0.05s
Presolved: 2367 rows, 2281 columns, 11695 nonzeros
Variable types: 579 continuous, 1702 integer (1702 binary)
Found heuristic solution: objective -0.0303470

Root relaxation: objective -1.782992e+00, 1758 iterations, 0.05 seconds

    Nodes    |    Current Node    |     Objective Bounds      |     Work
 Expl Unexpl |  Obj  Depth IntInf | Incumbent    BestBd   Gap | It/Node Time

     0     0   -1.78299    0  121   -0.03035   -1.78299  5775%     -    0s
     0     0   -1.67068    0  147   -0.03035   -1.67068  5405%     -    0s
H    0     0                      -0.9266932   -1.67068  80.3%     -    0s
     0     0   -1.64208    0  149   -0.92669   -1.64208  77.2%     -    0s
     0     0   -1.56139    0  128   -0.92669   -1.56139  68.5%     -    0s
     0     0   -1.55639    0  127   -0.92669   -1.55639  68.0%     -    0s
     0     0   -1.55079    0  151   -0.92669   -1.55079  67.3%     -    0s
     0     0   -1.55079    0  151   -0.92669   -1.55079  67.3%     -    0s
     0     0   -1.54352    0  135   -0.92669   -1.54352  66.6%     -    0s
     0     0   -1.52622    0  144   -0.92669   -1.52622  64.7%     -    0s
     0     0   -1.52622    0  140   -0.92669   -1.52622  64.7%     -    0s
     0     0   -1.52309    0  151   -0.92669   -1.52309  64.4%     -    0s
     0     0   -1.52075    0  149   -0.92669   -1.52075  64.1%     -    0s
     0     0   -1.52075    0  152   -0.92669   -1.52075  64.1%     -    0s
     0     0   -1.51802    0  153   -0.92669   -1.51802  63.8%     -    0s
     0     0   -1.51801    0  140   -0.92669   -1.51801  63.8%     -    0s
     0     0   -1.51724    0  142   -0.92669   -1.51724  63.7%     -    0s
     0     0   -1.51724    0  151   -0.92669   -1.51724  63.7%     -    0s
     0     0   -1.51645    0  148   -0.92669   -1.51645  63.6%     -    0s
     0     0   -1.51645    0  136   -0.92669   -1.51645  63.6%     -    0s
     0     2   -1.51645    0  130   -0.92669   -1.51645  63.6%     -    0s

Cutting planes:
  Gomory: 7
  Implied bound: 1
  MIR: 4
  Flow cover: 31
  RLT: 125

Explored 65 nodes (11000 simplex iterations) in 1.12 seconds
Thread count was 4 (of 4 available processors)

Solution count 2: -0.926693 -0.030347 

Optimal solution found (tolerance 5.00e-02)
Best objective -9.266932270916e-01, best bound -9.266932270916e-01, gap 0.0000%

Gurobi 9.1.1 (linux64) logging started Tue Nov 30 04:33:50 2021

Changed value of parameter LogFile to /home/aniket/python_scripts/Plasmids-Optimization/exp/2021-06-14__iterative_MILP_edge_novelty/output/sample_43/1.1.1/nplasmids_1/MILP/m.log
   Prev:   Default: 
Changed value of parameter TimeLimit to 240.0
   Prev: inf  Min: 0.0  Max: inf  Default: inf
Changed value of parameter MIPGap to 0.05
   Prev: 0.0001  Min: 0.0  Max: inf  Default: 0.0001
Gurobi Optimizer version 9.1.1 build v9.1.1rc0 (linux64)
Thread count: 2 physical cores, 4 logical processors, using up to 4 threads
Optimize a model with 15494 rows, 5199 columns and 38155 nonzeros
Model fingerprint: 0x3d48fac1
Variable types: 1531 continuous, 3668 integer (3362 binary)
Coefficient statistics:
  Matrix range     [1e-02, 7e+05]
  Objective range  [9e-03, 1e+00]
  Bounds range     [1e+00, 1e+00]
  RHS range        [1e+00, 2e+05]
Presolve removed 13137 rows and 2923 columns
Presolve time: 0.05s
Presolved: 2357 rows, 2276 columns, 11665 nonzeros
Variable types: 577 continuous, 1699 integer (1699 binary)
Found heuristic solution: objective -0.0303470

Root relaxation: objective -1.314484e+00, 1224 iterations, 0.04 seconds

    Nodes    |    Current Node    |     Objective Bounds      |     Work
 Expl Unexpl |  Obj  Depth IntInf | Incumbent    BestBd   Gap | It/Node Time

     0     0   -1.31448    0  111   -0.03035   -1.31448  4232%     -    0s
     0     0   -1.28072    0   93   -0.03035   -1.28072  4120%     -    0s
H    0     0                      -0.8642496   -1.28072  48.2%     -    0s
     0     0   -1.25082    0  102   -0.86425   -1.25082  44.7%     -    0s

Cutting planes:
  Gomory: 4
  Implied bound: 3
  Clique: 7
  MIR: 4
  Flow cover: 53
  RLT: 48

Explored 1 nodes (2606 simplex iterations) in 0.30 seconds
Thread count was 4 (of 4 available processors)

Solution count 2: -0.86425 -0.030347 

Optimal solution found (tolerance 5.00e-02)
Best objective -8.642495784148e-01, best bound -8.642495784148e-01, gap 0.0000%

Gurobi 9.1.1 (linux64) logging started Tue Nov 30 04:33:51 2021

Changed value of parameter LogFile to /home/aniket/python_scripts/Plasmids-Optimization/exp/2021-06-14__iterative_MILP_edge_novelty/output/sample_43/1.1.1/nplasmids_1/MILP/m.log
   Prev:   Default: 
Changed value of parameter TimeLimit to 240.0
   Prev: inf  Min: 0.0  Max: inf  Default: inf
Changed value of parameter MIPGap to 0.05
   Prev: 0.0001  Min: 0.0  Max: inf  Default: 0.0001
Gurobi Optimizer version 9.1.1 build v9.1.1rc0 (linux64)
Thread count: 2 physical cores, 4 logical processors, using up to 4 threads
Optimize a model with 15456 rows, 5186 columns and 38081 nonzeros
Model fingerprint: 0x0283f3a8
Variable types: 1526 continuous, 3660 integer (3355 binary)
Coefficient statistics:
  Matrix range     [1e-02, 7e+05]
  Objective range  [9e-03, 1e+00]
  Bounds range     [1e+00, 1e+00]
  RHS range        [1e+00, 2e+05]
Presolve removed 13107 rows and 2914 columns
Presolve time: 0.05s
Presolved: 2349 rows, 2272 columns, 11640 nonzeros
Variable types: 575 continuous, 1697 integer (1697 binary)
Found heuristic solution: objective -0.0303470

Root relaxation: objective -7.564281e-01, 1017 iterations, 0.04 seconds

    Nodes    |    Current Node    |     Objective Bounds      |     Work
 Expl Unexpl |  Obj  Depth IntInf | Incumbent    BestBd   Gap | It/Node Time

     0     0   -0.75643    0  106   -0.03035   -0.75643  2393%     -    0s
     0     0   -0.72896    0  159   -0.03035   -0.72896  2302%     -    0s
H    0     0                      -0.7076501   -0.72896  3.01%     -    0s

Cutting planes:
  Implied bound: 2
  Flow cover: 31
  RLT: 24

Explored 1 nodes (3123 simplex iterations) in 0.25 seconds
Thread count was 4 (of 4 available processors)

Solution count 2: -0.70765 -0.030347 

Optimal solution found (tolerance 5.00e-02)
Best objective -7.076501494701e-01, best bound -7.289578149172e-01, gap 3.0110%

Gurobi 9.1.1 (linux64) logging started Tue Nov 30 04:33:51 2021

Changed value of parameter LogFile to /home/aniket/python_scripts/Plasmids-Optimization/exp/2021-06-14__iterative_MILP_edge_novelty/output/sample_43/1.1.1/nplasmids_1/MILP/m.log
   Prev:   Default: 
Changed value of parameter TimeLimit to 240.0
   Prev: inf  Min: 0.0  Max: inf  Default: inf
Changed value of parameter MIPGap to 0.05
   Prev: 0.0001  Min: 0.0  Max: inf  Default: 0.0001
Gurobi Optimizer version 9.1.1 build v9.1.1rc0 (linux64)
Thread count: 2 physical cores, 4 logical processors, using up to 4 threads
Optimize a model with 15359 rows, 5153 columns and 37842 nonzeros
Model fingerprint: 0x59410e21
Variable types: 1516 continuous, 3637 integer (3334 binary)
Coefficient statistics:
  Matrix range     [1e-02, 7e+05]
  Objective range  [9e-03, 1e+00]
  Bounds range     [1e+00, 1e+00]
  RHS range        [1e+00, 2e+05]
Presolve removed 13035 rows and 2896 columns
Presolve time: 0.06s
Presolved: 2324 rows, 2257 columns, 12477 nonzeros
Variable types: 570 continuous, 1687 integer (1687 binary)
Found heuristic solution: objective -0.0303470

Explored 0 nodes (0 simplex iterations) in 0.07 seconds
Thread count was 4 (of 4 available processors)

Solution count 1: -0.030347 

Optimal solution found (tolerance 5.00e-02)
Best objective -3.034695171664e-02, best bound -3.034695171664e-02, gap 0.0000%

Gurobi 9.1.1 (linux64) logging started Tue Nov 30 04:33:52 2021

Changed value of parameter LogFile to /home/aniket/python_scripts/Plasmids-Optimization/exp/2021-06-14__iterative_MILP_edge_novelty/output/sample_43/1.1.1/nplasmids_1/MILP/m.log
   Prev:   Default: 
Changed value of parameter TimeLimit to 240.0
   Prev: inf  Min: 0.0  Max: inf  Default: inf
Changed value of parameter MIPGap to 0.05
   Prev: 0.0001  Min: 0.0  Max: inf  Default: 0.0001
Gurobi Optimizer version 9.1.1 build v9.1.1rc0 (linux64)
Thread count: 2 physical cores, 4 logical processors, using up to 4 threads
Optimize a model with 15315 rows, 5138 columns and 37742 nonzeros
Model fingerprint: 0xa5dd4f70
Variable types: 1511 continuous, 3627 integer (3325 binary)
Coefficient statistics:
  Matrix range     [1e-02, 7e+05]
  Objective range  [9e-03, 1e+00]
  Bounds range     [1e+00, 1e+00]
  RHS range        [1e+00, 2e+05]
Presolve removed 5898 rows and 932 columns
Presolve time: 0.00s

Explored 0 nodes (0 simplex iterations) in 0.01 seconds
Thread count was 1 (of 4 available processors)

Solution count 0

Model is infeasible
Best objective -, best bound -, gap -

Computing Irreducible Inconsistent Subsystem (IIS)...

           Constraints          |            Bounds           |  Runtime
      Min       Max     Guess   |   Min       Max     Guess   |
--------------------------------------------------------------------------
        0     12514         -         0      1813         -           0s
      606       606         -         0         0         -           2s

IIS computed: 606 constraints, 0 bounds
IIS runtime: 1.65 seconds
Warning: linear constraint 0 and linear constraint 1 have the same name "counted_length"
